70
1 0 3
2 0 1
2 1 4
3 0 2
3 1 1
3 2 4
4 0 5
4 1 4
4 2 2
4 3 3
5 0 1
5 1 4
5 2 1
5 3 5
5 4 3
6 0 4
6 1 1
6 2 4
6 3 2
6 4 1
6 5 5
7 0 4
7 1 5
7 2 2
7 3 5
7 4 4
7 5 1
7 6 5
8 0 2
8 1 1
8 2 5
8 3 2
8 4 3
8 5 4
8 6 4
8 7 5
9 0 1
9 1 5
9 2 5
9 3 1
9 4 3
9 5 4
9 6 5
9 7 3
9 8 5
10 0 5
10 1 2
10 2 5
10 3 4
10 4 2
10 5 1
10 6 4
10 7 5
10 8 3
10 9 4
11 0 4
11 1 3
11 2 1
11 3 3
11 4 1
11 5 1
11 6 5
11 7 3
11 8 1
11 9 5
11 10 2
12 0 3
12 1 5
12 2 4
12 3 1
12 4 2
12 5 1
12 6 5
12 7 4
12 8 3
12 9 4
12 10 2
12 11 2
13 0 5
13 1 3
13 2 5
13 3 2
13 4 3
13 5 3
13 6 4
13 7 1
13 8 1
13 9 4
13 10 2
13 11 1
13 12 1
14 0 3
14 1 2
14 2 3
14 3 2
14 4 1
14 5 4
14 6 4
14 7 4
14 8 4
14 9 3
14 10 5
14 11 2
14 12 3
14 13 4
15 0 2
15 1 3
15 2 1
15 3 4
15 4 4
15 5 4
15 6 5
15 7 5
15 8 1
15 9 1
15 10 4
15 11 1
15 12 1
15 13 4
15 14 1
16 0 1
16 1 1
16 2 4
16 3 1
16 4 1
16 5 1
16 6 5
16 7 3
16 8 4
16 9 3
16 10 2
16 11 3
16 12 1
16 13 2
16 14 1
16 15 2
17 0 4
17 1 4
17 2 3
17 3 3
17 4 5
17 5 3
17 6 3
17 7 2
17 8 2
17 9 4
17 10 4
17 11 1
17 12 4
17 13 3
17 14 4
17 15 2
17 16 5
18 0 4
18 1 5
18 2 4
18 3 1
18 4 2
18 5 4
18 6 4
18 7 3
18 8 1
18 9 5
18 10 5
18 11 3
18 12 1
18 13 4
18 14 1
18 15 3
18 16 2
18 17 5
19 0 1
19 1 2
19 2 1
19 3 5
19 4 1
19 5 4
19 6 4
19 7 5
19 8 1
19 9 5
19 10 2
19 11 5
19 12 4
19 13 4
19 14 3
19 15 4
19 16 2
19 17 4
19 18 3
20 0 3
20 1 4
20 2 5
20 3 1
20 4 1
20 5 5
20 6 1
20 7 5
20 8 4
20 9 2
20 10 3
20 11 2
20 12 4
20 13 1
20 14 3
20 15 3
20 16 3
20 17 1
20 18 3
20 19 1
21 0 3
21 1 4
21 2 4
21 3 2
21 4 3
21 5 3
21 6 5
21 7 1
21 8 3
21 9 4
21 10 5
21 11 2
21 12 1
21 13 2
21 14 3
21 15 1
21 16 3
21 17 5
21 18 2
21 19 4
21 20 3
22 0 2
22 1 1
22 2 2
22 3 3
22 4 3
22 5 1
22 6 3
22 7 1
22 8 5
22 9 1
22 10 5
22 11 3
22 12 3
22 13 4
22 14 2
22 15 1
22 16 3
22 17 5
22 18 3
22 19 5
22 20 2
22 21 2
23 0 5
23 1 5
23 2 5
23 3 5
23 4 3
23 5 3
23 6 5
23 7 5
23 8 3
23 9 1
23 10 5
23 11 4
23 12 4
23 13 4
23 14 4
23 15 4
23 16 5
23 17 3
23 18 5
23 19 3
23 20 1
23 21 1
23 22 1
24 0 4
24 1 4
24 2 3
24 3 5
24 4 1
24 5 1
24 6 4
24 7 2
24 8 3
24 9 1
24 10 5
24 11 3
24 12 3
24 13 1
24 14 5
24 15 1
24 16 2
24 17 5
24 18 3
24 19 2
24 20 1
24 21 3
24 22 3
24 23 2
25 0 1
25 1 2
25 2 1
25 3 4
25 4 5
25 5 2
25 6 5
25 7 3
25 8 1
25 9 2
25 10 2
25 11 5
25 12 3
25 13 2
25 14 5
25 15 4
25 16 5
25 17 4
25 18 2
25 19 3
25 20 4
25 21 1
25 22 1
25 23 5
25 24 1
26 0 2
26 1 2
26 2 4
26 3 4
26 4 1
26 5 4
26 6 4
26 7 3
26 8 2
26 9 5
26 10 3
26 11 4
26 12 3
26 13 5
26 14 3
26 15 5
26 16 1
26 17 5
26 18 1
26 19 3
26 20 2
26 21 3
26 22 4
26 23 5
26 24 2
26 25 2
27 0 4
27 1 3
27 2 5
27 3 3
27 4 4
27 5 4
27 6 1
27 7 3
27 8 3
27 9 2
27 10 3
27 11 3
27 12 3
27 13 1
27 14 2
27 15 3
27 16 3
27 17 2
27 18 1
27 19 4
27 20 1
27 21 4
27 22 5
27 23 4
27 24 3
27 25 3
27 26 3
28 0 3
28 1 5
28 2 1
28 3 1
28 4 4
28 5 2
28 6 4
28 7 2
28 8 2
28 9 4
28 10 5
28 11 4
28 12 1
28 13 4
28 14 3
28 15 1
28 16 1
28 17 5
28 18 2
28 19 2
28 20 2
28 21 3
28 22 3
28 23 1
28 24 5
28 25 3
28 26 2
28 27 1
29 0 4
29 1 2
29 2 4
29 3 2
29 4 1
29 5 2
29 6 4
29 7 4
29 8 2
29 9 2
29 10 1
29 11 4
29 12 1
29 13 5
29 14 4
29 15 5
29 16 1
29 17 2
29 18 5
29 19 4
29 20 3
29 21 2
29 22 4
29 23 2
29 24 4
29 25 2
29 26 2
29 27 3
29 28 3
30 0 2
30 1 5
30 2 2
30 3 1
30 4 5
30 5 3
30 6 2
30 7 3
30 8 1
30 9 3
30 10 5
30 11 5
30 12 1
30 13 5
30 14 5
30 15 4
30 16 4
30 17 5
30 18 1
30 19 3
30 20 2
30 21 2
30 22 1
30 23 1
30 24 1
30 25 4
30 26 3
30 27 4
30 28 3
30 29 2
31 0 1
31 1 4
31 2 2
31 3 2
31 4 2
31 5 3
31 6 2
31 7 3
31 8 1
31 9 1
31 10 4
31 11 4
31 12 4
31 13 4
31 14 4
31 15 3
31 16 1
31 17 4
31 18 4
31 19 4
31 20 2
31 21 2
31 22 4
31 23 4
31 24 2
31 25 3
31 26 4
31 27 3
31 28 5
31 29 4
31 30 5
32 0 1
32 1 3
32 2 4
32 3 2
32 4 5
32 5 1
32 6 2
32 7 5
32 8 3
32 9 1
32 10 5
32 11 2
32 12 2
32 13 3
32 14 3
32 15 3
32 16 3
32 17 5
32 18 3
32 19 2
32 20 4
32 21 4
32 22 1
32 23 1
32 24 4
32 25 1
32 26 3
32 27 1
32 28 2
32 29 2
32 30 3
32 31 5
33 0 3
33 1 4
33 2 3
33 3 4
33 4 2
33 5 2
33 6 5
33 7 3
33 8 2
33 9 3
33 10 4
33 11 1
33 12 1
33 13 1
33 14 1
33 15 1
33 16 2
33 17 5
33 18 5
33 19 1
33 20 2
33 21 4
33 22 1
33 23 2
33 24 5
33 25 3
33 26 4
33 27 2
33 28 2
33 29 4
33 30 4
33 31 5
33 32 3
34 0 5
34 1 5
34 2 3
34 3 3
34 4 4
34 5 5
34 6 4
34 7 5
34 8 4
34 9 1
34 10 2
34 11 2
34 12 2
34 13 5
34 14 3
34 15 1
34 16 1
34 17 2
34 18 1
34 19 3
34 20 1
34 21 3
34 22 3
34 23 3
34 24 3
34 25 4
34 26 4
34 27 1
34 28 2
34 29 3
34 30 4
34 31 3
34 32 1
34 33 3
35 0 4
35 1 4
35 2 5
35 3 5
35 4 2
35 5 5
35 6 3
35 7 3
35 8 3
35 9 3
35 10 5
35 11 5
35 12 4
35 13 2
35 14 2
35 15 4
35 16 1
35 17 2
35 18 4
35 19 3
35 20 4
35 21 1
35 22 1
35 23 5
35 24 1
35 25 2
35 26 3
35 27 1
35 28 5
35 29 3
35 30 4
35 31 4
35 32 3
35 33 1
35 34 1
36 0 2
36 1 3
36 2 3
36 3 3
36 4 1
36 5 2
36 6 1
36 7 2
36 8 1
36 9 2
36 10 4
36 11 5
36 12 2
36 13 1
36 14 5
36 15 5
36 16 1
36 17 5
36 18 5
36 19 4
36 20 1
36 21 5
36 22 5
36 23 4
36 24 1
36 25 3
36 26 3
36 27 3
36 28 3
36 29 1
36 30 5
36 31 5
36 32 1
36 33 1
36 34 2
36 35 1
37 0 3
37 1 4
37 2 1
37 3 2
37 4 2
37 5 3
37 6 4
37 7 5
37 8 4
37 9 4
37 10 3
37 11 3
37 12 3
37 13 1
37 14 4
37 15 5
37 16 2
37 17 2
37 18 3
37 19 2
37 20 1
37 21 3
37 22 5
37 23 3
37 24 4
37 25 1
37 26 3
37 27 4
37 28 3
37 29 2
37 30 4
37 31 5
37 32 3
37 33 2
37 34 1
37 35 1
37 36 2
38 0 5
38 1 3
38 2 2
38 3 3
38 4 3
38 5 2
38 6 5
38 7 4
38 8 2
38 9 2
38 10 4
38 11 3
38 12 4
38 13 5
38 14 2
38 15 1
38 16 4
38 17 4
38 18 5
38 19 2
38 20 3
38 21 4
38 22 1
38 23 4
38 24 3
38 25 5
38 26 1
38 27 1
38 28 4
38 29 5
38 30 3
38 31 3
38 32 5
38 33 3
38 34 5
38 35 2
38 36 3
38 37 1
39 0 1
39 1 3
39 2 3
39 3 2
39 4 3
39 5 3
39 6 4
39 7 2
39 8 5
39 9 5
39 10 5
39 11 3
39 12 1
39 13 2
39 14 1
39 15 2
39 16 2
39 17 4
39 18 1
39 19 4
39 20 2
39 21 5
39 22 5
39 23 1
39 24 5
39 25 5
39 26 4
39 27 2
39 28 1
39 29 1
39 30 3
39 31 1
39 32 4
39 33 3
39 34 1
39 35 4
39 36 5
39 37 5
39 38 2
40 0 1
40 1 4
40 2 1
40 3 5
40 4 2
40 5 1
40 6 3
40 7 4
40 8 4
40 9 3
40 10 5
40 11 4
40 12 1
40 13 5
40 14 5
40 15 3
40 16 1
40 17 3
40 18 4
40 19 4
40 20 2
40 21 1
40 22 3
40 23 1
40 24 2
40 25 3
40 26 4
40 27 4
40 28 2
40 29 1
40 30 1
40 31 3
40 32 4
40 33 4
40 34 1
40 35 2
40 36 5
40 37 1
40 38 2
40 39 4
41 0 5
41 1 1
41 2 5
41 3 1
41 4 4
41 5 4
41 6 1
41 7 4
41 8 2
41 9 2
41 10 4
41 11 1
41 12 2
41 13 3
41 14 3
41 15 2
41 16 5
41 17 1
41 18 4
41 19 2
41 20 5
41 21 3
41 22 2
41 23 3
41 24 5
41 25 1
41 26 1
41 27 5
41 28 1
41 29 3
41 30 5
41 31 5
41 32 4
41 33 3
41 34 2
41 35 3
41 36 3
41 37 4
41 38 4
41 39 4
41 40 3
42 0 4
42 1 5
42 2 1
42 3 3
42 4 2
42 5 3
42 6 3
42 7 4
42 8 2
42 9 3
42 10 5
42 11 4
42 12 3
42 13 5
42 14 1
42 15 4
42 16 2
42 17 4
42 18 3
42 19 1
42 20 2
42 21 2
42 22 1
42 23 2
42 24 1
42 25 3
42 26 1
42 27 2
42 28 2
42 29 4
42 30 4
42 31 4
42 32 3
42 33 5
42 34 3
42 35 3
42 36 5
42 37 1
42 38 5
42 39 1
42 40 1
42 41 3
43 0 3
43 1 4
43 2 3
43 3 2
43 4 4
43 5 4
43 6 5
43 7 2
43 8 1
43 9 3
43 10 2
43 11 3
43 12 2
43 13 4
43 14 5
43 15 2
43 16 5
43 17 2
43 18 3
43 19 1
43 20 1
43 21 5
43 22 3
43 23 1
43 24 1
43 25 5
43 26 5
43 27 3
43 28 1
43 29 3
43 30 3
43 31 2
43 32 4
43 33 3
43 34 3
43 35 2
43 36 2
43 37 4
43 38 4
43 39 3
43 40 4
43 41 2
43 42 5
44 0 4
44 1 1
44 2 4
44 3 1
44 4 1
44 5 3
44 6 4
44 7 2
44 8 1
44 9 2
44 10 4
44 11 2
44 12 3
44 13 4
44 14 5
44 15 5
44 16 2
44 17 5
44 18 2
44 19 5
44 20 2
44 21 1
44 22 3
44 23 2
44 24 2
44 25 4
44 26 2
44 27 1
44 28 2
44 29 3
44 30 1
44 31 3
44 32 4
44 33 2
44 34 3
44 35 1
44 36 3
44 37 3
44 38 3
44 39 4
44 40 1
44 41 4
44 42 5
44 43 4
45 0 4
45 1 2
45 2 4
45 3 4
45 4 2
45 5 3
45 6 5
45 7 5
45 8 3
45 9 3
45 10 4
45 11 1
45 12 3
45 13 3
45 14 3
45 15 3
45 16 4
45 17 2
45 18 3
45 19 4
45 20 4
45 21 5
45 22 3
45 23 2
45 24 3
45 25 5
45 26 4
45 27 1
45 28 1
45 29 2
45 30 5
45 31 5
45 32 3
45 33 2
45 34 3
45 35 1
45 36 4
45 37 2
45 38 4
45 39 2
45 40 3
45 41 3
45 42 4
45 43 5
45 44 1
46 0 2
46 1 1
46 2 1
46 3 1
46 4 3
46 5 1
46 6 2
46 7 1
46 8 4
46 9 2
46 10 3
46 11 1
46 12 4
46 13 4
46 14 4
46 15 5
46 16 2
46 17 5
46 18 1
46 19 1
46 20 4
46 21 5
46 22 4
46 23 5
46 24 4
46 25 3
46 26 2
46 27 4
46 28 3
46 29 3
46 30 1
46 31 1
46 32 3
46 33 5
46 34 4
46 35 5
46 36 2
46 37 4
46 38 5
46 39 3
46 40 3
46 41 1
46 42 2
46 43 2
46 44 3
46 45 4
47 0 5
47 1 1
47 2 2
47 3 3
47 4 1
47 5 3
47 6 2
47 7 1
47 8 3
47 9 1
47 10 1
47 11 2
47 12 3
47 13 4
47 14 2
47 15 3
47 16 2
47 17 1
47 18 2
47 19 1
47 20 4
47 21 2
47 22 1
47 23 2
47 24 5
47 25 2
47 26 1
47 27 2
47 28 2
47 29 5
47 30 5
47 31 3
47 32 1
47 33 5
47 34 1
47 35 4
47 36 1
47 37 4
47 38 2
47 39 5
47 40 1
47 41 3
47 42 4
47 43 4
47 44 4
47 45 5
47 46 4
48 0 5
48 1 1
48 2 4
48 3 5
48 4 1
48 5 5
48 6 3
48 7 5
48 8 5
48 9 5
48 10 3
48 11 5
48 12 4
48 13 5
48 14 3
48 15 2
48 16 2
48 17 1
48 18 4
48 19 5
48 20 5
48 21 4
48 22 5
48 23 4
48 24 5
48 25 3
48 26 2
48 27 4
48 28 5
48 29 3
48 30 1
48 31 3
48 32 4
48 33 5
48 34 2
48 35 3
48 36 3
48 37 3
48 38 3
48 39 5
48 40 1
48 41 5
48 42 2
48 43 3
48 44 2
48 45 1
48 46 2
48 47 3
49 0 4
49 1 1
49 2 4
49 3 4
49 4 1
49 5 1
49 6 2
49 7 2
49 8 1
49 9 5
49 10 2
49 11 3
49 12 5
49 13 4
49 14 3
49 15 3
49 16 4
49 17 1
49 18 4
49 19 2
49 20 1
49 21 5
49 22 3
49 23 3
49 24 5
49 25 1
49 26 2
49 27 3
49 28 1
49 29 1
49 30 4
49 31 3
49 32 3
49 33 3
49 34 2
49 35 2
49 36 5
49 37 1
49 38 5
49 39 2
49 40 5
49 41 5
49 42 1
49 43 4
49 44 4
49 45 3
49 46 1
49 47 1
49 48 1
50 0 3
50 1 3
50 2 4
50 3 5
50 4 5
50 5 4
50 6 1
50 7 5
50 8 2
50 9 2
50 10 5
50 11 1
50 12 3
50 13 4
50 14 4
50 15 3
50 16 3
50 17 5
50 18 4
50 19 4
50 20 2
50 21 4
50 22 1
50 23 3
50 24 1
50 25 4
50 26 1
50 27 1
50 28 2
50 29 2
50 30 3
50 31 1
50 32 1
50 33 1
50 34 4
50 35 3
50 36 2
50 37 5
50 38 2
50 39 4
50 40 4
50 41 5
50 42 1
50 43 2
50 44 5
50 45 4
50 46 4
50 47 5
50 48 3
50 49 2
51 0 4
51 1 1
51 2 1
51 3 4
51 4 4
51 5 1
51 6 2
51 7 3
51 8 5
51 9 4
51 10 2
51 11 4
51 12 4
51 13 3
51 14 1
51 15 1
51 16 1
51 17 5
51 18 3
51 19 5
51 20 5
51 21 4
51 22 5
51 23 1
51 24 5
51 25 2
51 26 1
51 27 2
51 28 5
51 29 4
51 30 4
51 31 2
51 32 3
51 33 1
51 34 4
51 35 3
51 36 5
51 37 5
51 38 5
51 39 5
51 40 5
51 41 1
51 42 1
51 43 3
51 44 4
51 45 4
51 46 2
51 47 3
51 48 1
51 49 2
51 50 3
52 0 4
52 1 3
52 2 4
52 3 3
52 4 1
52 5 5
52 6 2
52 7 5
52 8 1
52 9 1
52 10 3
52 11 2
52 12 2
52 13 5
52 14 3
52 15 2
52 16 5
52 17 5
52 18 2
52 19 4
52 20 4
52 21 4
52 22 4
52 23 1
52 24 5
52 25 4
52 26 1
52 27 5
52 28 1
52 29 3
52 30 5
52 31 4
52 32 2
52 33 4
52 34 4
52 35 3
52 36 4
52 37 3
52 38 4
52 39 4
52 40 1
52 41 3
52 42 1
52 43 3
52 44 1
52 45 2
52 46 4
52 47 1
52 48 4
52 49 1
52 50 3
52 51 4
53 0 3
53 1 1
53 2 1
53 3 2
53 4 5
53 5 2
53 6 5
53 7 5
53 8 2
53 9 1
53 10 3
53 11 2
53 12 3
53 13 5
53 14 1
53 15 1
53 16 5
53 17 5
53 18 4
53 19 1
53 20 5
53 21 3
53 22 1
53 23 1
53 24 4
53 25 4
53 26 4
53 27 4
53 28 2
53 29 2
53 30 2
53 31 4
53 32 5
53 33 2
53 34 1
53 35 1
53 36 5
53 37 1
53 38 2
53 39 1
53 40 5
53 41 1
53 42 1
53 43 1
53 44 2
53 45 1
53 46 5
53 47 4
53 48 3
53 49 1
53 50 2
53 51 1
53 52 5
54 0 5
54 1 1
54 2 4
54 3 1
54 4 5
54 5 5
54 6 1
54 7 4
54 8 3
54 9 3
54 10 2
54 11 2
54 12 1
54 13 3
54 14 3
54 15 2
54 16 2
54 17 2
54 18 2
54 19 5
54 20 4
54 21 2
54 22 2
54 23 1
54 24 2
54 25 1
54 26 2
54 27 5
54 28 3
54 29 5
54 30 5
54 31 3
54 32 1
54 33 4
54 34 2
54 35 5
54 36 2
54 37 3
54 38 1
54 39 1
54 40 4
54 41 2
54 42 2
54 43 2
54 44 2
54 45 3
54 46 4
54 47 3
54 48 4
54 49 5
54 50 1
54 51 4
54 52 5
54 53 2
55 0 4
55 1 1
55 2 3
55 3 2
55 4 2
55 5 1
55 6 5
55 7 5
55 8 2
55 9 5
55 10 2
55 11 4
55 12 5
55 13 4
55 14 3
55 15 4
55 16 4
55 17 2
55 18 5
55 19 4
55 20 5
55 21 5
55 22 3
55 23 4
55 24 3
55 25 3
55 26 3
55 27 1
55 28 2
55 29 1
55 30 1
55 31 5
55 32 4
55 33 5
55 34 3
55 35 3
55 36 5
55 37 4
55 38 3
55 39 1
55 40 3
55 41 2
55 42 3
55 43 3
55 44 5
55 45 5
55 46 3
55 47 1
55 48 2
55 49 3
55 50 4
55 51 2
55 52 5
55 53 2
55 54 4
56 0 1
56 1 5
56 2 3
56 3 2
56 4 1
56 5 3
56 6 2
56 7 1
56 8 2
56 9 2
56 10 4
56 11 1
56 12 1
56 13 4
56 14 5
56 15 2
56 16 5
56 17 1
56 18 5
56 19 5
56 20 1
56 21 1
56 22 3
56 23 1
56 24 3
56 25 4
56 26 2
56 27 1
56 28 2
56 29 5
56 30 1
56 31 4
56 32 1
56 33 2
56 34 5
56 35 5
56 36 5
56 37 4
56 38 2
56 39 1
56 40 1
56 41 1
56 42 2
56 43 4
56 44 1
56 45 1
56 46 3
56 47 2
56 48 1
56 49 3
56 50 5
56 51 1
56 52 2
56 53 4
56 54 3
56 55 1
57 0 3
57 1 1
57 2 3
57 3 1
57 4 1
57 5 5
57 6 2
57 7 5
57 8 1
57 9 5
57 10 3
57 11 2
57 12 1
57 13 5
57 14 3
57 15 1
57 16 5
57 17 4
57 18 1
57 19 4
57 20 4
57 21 3
57 22 4
57 23 1
57 24 3
57 25 4
57 26 3
57 27 1
57 28 4
57 29 2
57 30 3
57 31 3
57 32 5
57 33 4
57 34 1
57 35 4
57 36 4
57 37 3
57 38 4
57 39 4
57 40 2
57 41 4
57 42 2
57 43 2
57 44 5
57 45 5
57 46 2
57 47 1
57 48 5
57 49 5
57 50 2
57 51 4
57 52 5
57 53 4
57 54 5
57 55 1
57 56 5
58 0 5
58 1 1
58 2 2
58 3 4
58 4 4
58 5 5
58 6 1
58 7 2
58 8 4
58 9 4
58 10 4
58 11 5
58 12 4
58 13 1
58 14 5
58 15 2
58 16 1
58 17 1
58 18 2
58 19 5
58 20 2
58 21 2
58 22 4
58 23 1
58 24 4
58 25 1
58 26 5
58 27 2
58 28 1
58 29 5
58 30 1
58 31 3
58 32 2
58 33 1
58 34 2
58 35 4
58 36 3
58 37 4
58 38 4
58 39 5
58 40 5
58 41 5
58 42 3
58 43 4
58 44 5
58 45 5
58 46 1
58 47 2
58 48 2
58 49 1
58 50 2
58 51 3
58 52 3
58 53 4
58 54 1
58 55 4
58 56 3
58 57 3
59 0 3
59 1 4
59 2 2
59 3 3
59 4 5
59 5 5
59 6 5
59 7 1
59 8 2
59 9 5
59 10 3
59 11 1
59 12 5
59 13 5
59 14 2
59 15 5
59 16 2
59 17 5
59 18 3
59 19 2
59 20 5
59 21 4
59 22 4
59 23 1
59 24 4
59 25 3
59 26 2
59 27 1
59 28 3
59 29 2
59 30 5
59 31 2
59 32 4
59 33 3
59 34 5
59 35 2
59 36 3
59 37 4
59 38 1
59 39 2
59 40 4
59 41 5
59 42 2
59 43 5
59 44 5
59 45 1
59 46 3
59 47 3
59 48 5
59 49 5
59 50 2
59 51 4
59 52 3
59 53 5
59 54 3
59 55 4
59 56 1
59 57 5
59 58 2
60 0 2
60 1 2
60 2 4
60 3 5
60 4 2
60 5 2
60 6 3
60 7 5
60 8 3
60 9 5
60 10 5
60 11 3
60 12 3
60 13 4
60 14 1
60 15 4
60 16 4
60 17 4
60 18 2
60 19 1
60 20 1
60 21 3
60 22 4
60 23 5
60 24 4
60 25 3
60 26 3
60 27 3
60 28 4
60 29 4
60 30 2
60 31 3
60 32 2
60 33 5
60 34 2
60 35 5
60 36 2
60 37 3
60 38 2
60 39 5
60 40 3
60 41 3
60 42 4
60 43 1
60 44 1
60 45 3
60 46 2
60 47 3
60 48 5
60 49 3
60 50 2
60 51 5
60 52 2
60 53 4
60 54 2
60 55 1
60 56 3
60 57 2
60 58 3
60 59 3
61 0 1
61 1 4
61 2 5
61 3 5
61 4 1
61 5 1
61 6 1
61 7 5
61 8 1
61 9 1
61 10 5
61 11 5
61 12 3
61 13 2
61 14 2
61 15 1
61 16 2
61 17 5
61 18 4
61 19 5
61 20 4
61 21 1
61 22 4
61 23 1
61 24 2
61 25 1
61 26 5
61 27 1
61 28 1
61 29 5
61 30 4
61 31 3
61 32 2
61 33 3
61 34 5
61 35 1
61 36 4
61 37 3
61 38 4
61 39 4
61 40 2
61 41 2
61 42 4
61 43 1
61 44 1
61 45 2
61 46 3
61 47 2
61 48 3
61 49 5
61 50 4
61 51 5
61 52 5
61 53 3
61 54 3
61 55 5
61 56 2
61 57 1
61 58 1
61 59 3
61 60 2
62 0 3
62 1 2
62 2 2
62 3 4
62 4 1
62 5 2
62 6 4
62 7 5
62 8 4
62 9 1
62 10 1
62 11 2
62 12 5
62 13 1
62 14 5
62 15 3
62 16 2
62 17 3
62 18 1
62 19 1
62 20 2
62 21 1
62 22 3
62 23 2
62 24 3
62 25 1
62 26 1
62 27 5
62 28 4
62 29 3
62 30 5
62 31 3
62 32 4
62 33 3
62 34 1
62 35 2
62 36 2
62 37 2
62 38 1
62 39 3
62 40 2
62 41 2
62 42 3
62 43 5
62 44 5
62 45 1
62 46 5
62 47 4
62 48 4
62 49 1
62 50 5
62 51 3
62 52 2
62 53 4
62 54 4
62 55 2
62 56 1
62 57 4
62 58 1
62 59 2
62 60 4
62 61 4
63 0 5
63 1 4
63 2 5
63 3 4
63 4 1
63 5 4
63 6 4
63 7 4
63 8 1
63 9 4
63 10 3
63 11 5
63 12 2
63 13 2
63 14 5
63 15 2
63 16 4
63 17 2
63 18 1
63 19 2
63 20 3
63 21 2
63 22 5
63 23 1
63 24 5
63 25 4
63 26 5
63 27 1
63 28 5
63 29 1
63 30 4
63 31 3
63 32 2
63 33 1
63 34 5
63 35 4
63 36 5
63 37 4
63 38 5
63 39 1
63 40 3
63 41 3
63 42 1
63 43 3
63 44 1
63 45 1
63 46 2
63 47 2
63 48 4
63 49 2
63 50 3
63 51 2
63 52 3
63 53 3
63 54 4
63 55 1
63 56 3
63 57 1
63 58 3
63 59 3
63 60 4
63 61 2
63 62 1
64 0 2
64 1 3
64 2 2
64 3 2
64 4 3
64 5 2
64 6 5
64 7 4
64 8 3
64 9 1
64 10 2
64 11 5
64 12 4
64 13 1
64 14 5
64 15 2
64 16 3
64 17 2
64 18 5
64 19 1
64 20 3
64 21 2
64 22 1
64 23 4
64 24 1
64 25 1
64 26 1
64 27 5
64 28 3
64 29 1
64 30 3
64 31 3
64 32 2
64 33 2
64 34 5
64 35 1
64 36 4
64 37 5
64 38 4
64 39 4
64 40 3
64 41 5
64 42 2
64 43 3
64 44 1
64 45 3
64 46 4
64 47 5
64 48 3
64 49 4
64 50 5
64 51 2
64 52 3
64 53 3
64 54 5
64 55 4
64 56 2
64 57 2
64 58 1
64 59 3
64 60 3
64 61 5
64 62 3
64 63 2
65 0 3
65 1 5
65 2 2
65 3 4
65 4 4
65 5 4
65 6 1
65 7 1
65 8 4
65 9 4
65 10 1
65 11 2
65 12 1
65 13 1
65 14 2
65 15 1
65 16 5
65 17 3
65 18 5
65 19 2
65 20 3
65 21 4
65 22 5
65 23 2
65 24 5
65 25 3
65 26 4
65 27 1
65 28 2
65 29 1
65 30 2
65 31 1
65 32 1
65 33 4
65 34 2
65 35 4
65 36 1
65 37 5
65 38 1
65 39 5
65 40 5
65 41 1
65 42 3
65 43 1
65 44 5
65 45 5
65 46 4
65 47 3
65 48 3
65 49 5
65 50 5
65 51 3
65 52 5
65 53 1
65 54 3
65 55 1
65 56 4
65 57 3
65 58 4
65 59 3
65 60 3
65 61 2
65 62 2
65 63 4
65 64 1
66 0 3
66 1 5
66 2 2
66 3 1
66 4 4
66 5 3
66 6 4
66 7 2
66 8 4
66 9 1
66 10 3
66 11 4
66 12 5
66 13 3
66 14 4
66 15 3
66 16 4
66 17 5
66 18 5
66 19 4
66 20 3
66 21 1
66 22 4
66 23 1
66 24 4
66 25 2
66 26 5
66 27 2
66 28 3
66 29 3
66 30 5
66 31 1
66 32 4
66 33 5
66 34 2
66 35 2
66 36 1
66 37 2
66 38 4
66 39 3
66 40 1
66 41 1
66 42 3
66 43 2
66 44 1
66 45 2
66 46 5
66 47 2
66 48 5
66 49 5
66 50 2
66 51 4
66 52 4
66 53 5
66 54 2
66 55 5
66 56 1
66 57 5
66 58 2
66 59 2
66 60 3
66 61 4
66 62 4
66 63 2
66 64 3
66 65 4
67 0 1
67 1 1
67 2 3
67 3 4
67 4 5
67 5 2
67 6 2
67 7 2
67 8 4
67 9 1
67 10 5
67 11 5
67 12 3
67 13 2
67 14 5
67 15 1
67 16 3
67 17 5
67 18 3
67 19 5
67 20 4
67 21 3
67 22 5
67 23 2
67 24 1
67 25 1
67 26 2
67 27 1
67 28 2
67 29 3
67 30 3
67 31 3
67 32 3
67 33 2
67 34 4
67 35 3
67 36 3
67 37 4
67 38 2
67 39 1
67 40 3
67 41 2
67 42 5
67 43 2
67 44 5
67 45 2
67 46 1
67 47 3
67 48 1
67 49 2
67 50 3
67 51 1
67 52 3
67 53 4
67 54 1
67 55 3
67 56 5
67 57 3
67 58 2
67 59 2
67 60 1
67 61 4
67 62 2
67 63 3
67 64 3
67 65 1
67 66 1
68 0 2
68 1 2
68 2 2
68 3 1
68 4 2
68 5 5
68 6 2
68 7 4
68 8 3
68 9 2
68 10 5
68 11 1
68 12 4
68 13 5
68 14 5
68 15 3
68 16 4
68 17 5
68 18 1
68 19 4
68 20 3
68 21 5
68 22 2
68 23 5
68 24 3
68 25 1
68 26 4
68 27 5
68 28 3
68 29 4
68 30 2
68 31 1
68 32 4
68 33 1
68 34 4
68 35 3
68 36 5
68 37 4
68 38 1
68 39 1
68 40 5
68 41 2
68 42 4
68 43 4
68 44 1
68 45 4
68 46 3
68 47 2
68 48 1
68 49 5
68 50 2
68 51 2
68 52 4
68 53 1
68 54 1
68 55 1
68 56 1
68 57 3
68 58 2
68 59 3
68 60 2
68 61 1
68 62 2
68 63 4
68 64 4
68 65 1
68 66 4
68 67 3
69 0 2
69 1 4
69 2 3
69 3 3
69 4 3
69 5 1
69 6 4
69 7 2
69 8 5
69 9 4
69 10 1
69 11 1
69 12 5
69 13 3
69 14 5
69 15 1
69 16 1
69 17 5
69 18 3
69 19 1
69 20 1
69 21 2
69 22 5
69 23 2
69 24 5
69 25 5
69 26 2
69 27 1
69 28 4
69 29 3
69 30 2
69 31 3
69 32 5
69 33 2
69 34 2
69 35 4
69 36 1
69 37 1
69 38 1
69 39 5
69 40 2
69 41 5
69 42 2
69 43 2
69 44 4
69 45 3
69 46 5
69 47 4
69 48 3
69 49 3
69 50 2
69 51 4
69 52 2
69 53 4
69 54 2
69 55 3
69 56 3
69 57 1
69 58 4
69 59 4
69 60 4
69 61 4
69 62 5
69 63 4
69 64 2
69 65 3
69 66 3
69 67 2
69 68 5
